p edge 80 987
e 1 4
e 1 5
e 1 6
e 1 7
e 1 9
e 1 18
e 1 19
e 1 20
e 1 22
e 1 23
e 1 25
e 1 27
e 1 31
e 1 33
e 1 35
e 1 36
e 1 48
e 1 49
e 1 54
e 1 55
e 1 57
e 1 60
e 1 62
e 1 66
e 1 75
e 1 76
e 1 80
e 2 6
e 2 8
e 2 10
e 2 11
e 2 12
e 2 13
e 2 14
e 2 16
e 2 21
e 2 24
e 2 27
e 2 34
e 2 36
e 2 37
e 2 46
e 2 52
e 2 56
e 2 57
e 2 62
e 2 63
e 2 71
e 2 72
e 2 75
e 2 76
e 2 79
e 3 4
e 3 8
e 3 9
e 3 17
e 3 28
e 3 30
e 3 31
e 3 33
e 3 37
e 3 40
e 3 47
e 3 48
e 3 50
e 3 52
e 3 54
e 3 59
e 3 63
e 3 64
e 3 65
e 3 68
e 3 70
e 3 74
e 3 79
e 4 6
e 4 8
e 4 10
e 4 11
e 4 13
e 4 16
e 4 21
e 4 33
e 4 42
e 4 47
e 4 49
e 4 50
e 4 51
e 4 58
e 4 60
e 4 72
e 4 74
e 4 75
e 5 8
e 5 12
e 5 13
e 5 15
e 5 19
e 5 20
e 5 22
e 5 23
e 5 33
e 5 35
e 5 36
e 5 39
e 5 40
e 5 45
e 5 47
e 5 49
e 5 51
e 5 53
e 5 55
e 5 58
e 5 65
e 5 69
e 5 70
e 5 75
e 5 79
e 5 80
e 6 10
e 6 19
e 6 23
e 6 27
e 6 31
e 6 32
e 6 33
e 6 35
e 6 36
e 6 37
e 6 38
e 6 39
e 6 41
e 6 43
e 6 44
e 6 45
e 6 49
e 6 50
e 6 51
e 6 56
e 6 59
e 6 62
e 6 64
e 6 65
e 6 67
e 6 70
e 6 72
e 6 78
e 6 80
e 7 8
e 7 9
e 7 10
e 7 12
e 7 15
e 7 26
e 7 29
e 7 31
e 7 38
e 7 41
e 7 42
e 7 47
e 7 48
e 7 49
e 7 50
e 7 52
e 7 58
e 7 59
e 7 66
e 7 72
e 7 74
e 8 14
e 8 19
e 8 24
e 8 27
e 8 28
e 8 33
e 8 37
e 8 38
e 8 41
e 8 42
e 8 48
e 8 49
e 8 53
e 8 56
e 8 57
e 8 58
e 8 64
e 8 65
e 8 68
e 8 71
e 8 73
e 8 74
e 8 75
e 8 76
e 9 10
e 9 12
e 9 15
e 9 16
e 9 17
e 9 18
e 9 19
e 9 21
e 9 22
e 9 26
e 9 27
e 9 30
e 9 38
e 9 47
e 9 49
e 9 50
e 9 51
e 9 58
e 9 60
e 9 61
e 9 65
e 9 66
e 9 68
e 9 74
e 9 78
e 9 79
e 9 80
e 10 12
e 10 18
e 10 20
e 10 21
e 10 23
e 10 27
e 10 28
e 10 29
e 10 30
e 10 34
e 10 43
e 10 45
e 10 47
e 10 59
e 10 63
e 10 73
e 10 79
e 11 12
e 11 16
e 11 20
e 11 21
e 11 23
e 11 27
e 11 30
e 11 38
e 11 39
e 11 40
e 11 46
e 11 48
e 11 53
e 11 57
e 11 58
e 11 60
e 11 64
e 11 65
e 11 74
e 11 77
e 11 80
e 12 14
e 12 15
e 12 20
e 12 21
e 12 23
e 12 26
e 12 27
e 12 28
e 12 29
e 12 37
e 12 39
e 12 44
e 12 46
e 12 50
e 12 53
e 12 56
e 12 62
e 12 65
e 12 66
e 12 68
e 12 70
e 12 72
e 12 74
e 12 76
e 13 16
e 13 18
e 13 24
e 13 28
e 13 31
e 13 35
e 13 36
e 13 37
e 13 39
e 13 40
e 13 41
e 13 42
e 13 43
e 13 44
e 13 53
e 13 59
e 13 60
e 13 62
e 13 65
e 13 66
e 13 67
e 13 68
e 13 69
e 13 74
e 13 77
e 13 78
e 14 16
e 14 25
e 14 27
e 14 31
e 14 33
e 14 34
e 14 35
e 14 36
e 14 38
e 14 41
e 14 43
e 14 49
e 14 50
e 14 54
e 14 55
e 14 63
e 14 64
e 14 66
e 14 68
e 14 70
e 14 71
e 14 74
e 15 19
e 15 21
e 15 23
e 15 28
e 15 30
e 15 32
e 15 38
e 15 40
e 15 44
e 15 47
e 15 48
e 15 49
e 15 51
e 15 52
e 15 54
e 15 55
e 15 58
e 15 59
e 15 65
e 15 70
e 15 74
e 15 75
e 15 76
e 15 80
e 16 17
e 16 18
e 16 22
e 16 25
e 16 26
e 16 28
e 16 29
e 16 34
e 16 40
e 16 42
e 16 43
e 16 45
e 16 49
e 16 52
e 16 53
e 16 60
e 16 65
e 16 69
e 16 73
e 16 74
e 16 79
e 17 23
e 17 24
e 17 27
e 17 28
e 17 30
e 17 31
e 17 32
e 17 33
e 17 40
e 17 41
e 17 51
e 17 56
e 17 60
e 17 62
e 17 63
e 17 68
e 17 70
e 17 71
e 17 72
e 17 75
e 17 79
e 17 80
e 18 19
e 18 26
e 18 27
e 18 30
e 18 32
e 18 36
e 18 38
e 18 40
e 18 41
e 18 44
e 18 45
e 18 51
e 18 53
e 18 57
e 18 60
e 18 61
e 18 64
e 18 66
e 18 69
e 18 73
e 18 74
e 19 21
e 19 28
e 19 29
e 19 30
e 19 34
e 19 36
e 19 43
e 19 44
e 19 46
e 19 47
e 19 50
e 19 58
e 19 65
e 19 71
e 19 75
e 20 26
e 20 30
e 20 33
e 20 41
e 20 42
e 20 46
e 20 55
e 20 61
e 20 63
e 20 67
e 20 68
e 20 76
e 20 79
e 21 22
e 21 23
e 21 24
e 21 29
e 21 31
e 21 32
e 21 35
e 21 36
e 21 40
e 21 45
e 21 46
e 21 49
e 21 50
e 21 51
e 21 54
e 21 60
e 21 62
e 21 63
e 21 72
e 21 74
e 21 78
e 22 24
e 22 25
e 22 28
e 22 30
e 22 32
e 22 35
e 22 36
e 22 39
e 22 41
e 22 45
e 22 46
e 22 49
e 22 58
e 22 61
e 22 65
e 22 66
e 22 68
e 22 75
e 22 78
e 23 30
e 23 31
e 23 32
e 23 34
e 23 36
e 23 37
e 23 41
e 23 50
e 23 52
e 23 55
e 23 59
e 23 66
e 23 71
e 23 74
e 23 76
e 23 79
e 24 25
e 24 26
e 24 33
e 24 35
e 24 37
e 24 41
e 24 42
e 24 50
e 24 64
e 24 65
e 24 67
e 24 68
e 24 74
e 24 80
e 25 27
e 25 29
e 25 32
e 25 33
e 25 35
e 25 39
e 25 40
e 25 41
e 25 42
e 25 48
e 25 49
e 25 52
e 25 53
e 25 59
e 25 63
e 25 65
e 25 67
e 25 68
e 25 69
e 25 72
e 25 76
e 25 80
e 26 28
e 26 29
e 26 30
e 26 31
e 26 38
e 26 45
e 26 56
e 26 57
e 26 61
e 26 63
e 26 66
e 26 69
e 26 71
e 26 72
e 26 75
e 26 77
e 26 78
e 27 35
e 27 39
e 27 50
e 27 56
e 27 57
e 27 65
e 27 66
e 27 68
e 27 73
e 27 76
e 27 80
e 28 31
e 28 33
e 28 36
e 28 42
e 28 43
e 28 51
e 28 56
e 28 57
e 28 58
e 28 61
e 28 66
e 28 67
e 28 68
e 28 71
e 28 72
e 28 79
e 28 80
e 29 39
e 29 41
e 29 42
e 29 44
e 29 46
e 29 54
e 29 56
e 29 68
e 29 73
e 29 77
e 30 32
e 30 33
e 30 35
e 30 37
e 30 41
e 30 45
e 30 46
e 30 54
e 30 57
e 30 61
e 30 69
e 30 71
e 30 76
e 30 77
e 30 80
e 31 34
e 31 38
e 31 39
e 31 40
e 31 41
e 31 42
e 31 43
e 31 45
e 31 46
e 31 52
e 31 53
e 31 56
e 31 58
e 31 59
e 31 60
e 31 64
e 31 66
e 31 68
e 31 70
e 31 71
e 31 74
e 32 34
e 32 36
e 32 43
e 32 45
e 32 50
e 32 65
e 32 66
e 32 67
e 32 69
e 32 76
e 32 78
e 33 38
e 33 44
e 33 49
e 33 51
e 33 53
e 33 54
e 33 57
e 33 59
e 33 67
e 33 72
e 33 73
e 33 76
e 34 37
e 34 43
e 34 49
e 34 53
e 34 56
e 34 57
e 34 59
e 34 66
e 34 70
e 34 74
e 34 77
e 34 79
e 35 39
e 35 43
e 35 48
e 35 56
e 35 60
e 35 63
e 35 64
e 35 68
e 36 42
e 36 44
e 36 45
e 36 48
e 36 51
e 36 53
e 36 54
e 36 60
e 36 62
e 36 68
e 36 69
e 36 73
e 36 76
e 36 77
e 36 80
e 37 39
e 37 41
e 37 45
e 37 47
e 37 51
e 37 54
e 37 58
e 37 60
e 37 62
e 37 63
e 37 68
e 37 70
e 37 74
e 37 77
e 37 80
e 38 41
e 38 42
e 38 45
e 38 53
e 38 54
e 38 60
e 38 61
e 38 63
e 38 67
e 38 69
e 38 74
e 38 75
e 38 76
e 38 77
e 39 40
e 39 46
e 39 47
e 39 50
e 39 51
e 39 52
e 39 65
e 39 67
e 39 73
e 39 77
e 40 42
e 40 47
e 40 50
e 40 51
e 40 52
e 40 55
e 40 57
e 40 59
e 40 60
e 40 61
e 40 63
e 40 64
e 40 67
e 40 71
e 40 75
e 40 76
e 40 77
e 40 80
e 41 46
e 41 50
e 41 52
e 41 54
e 41 59
e 41 63
e 41 71
e 41 72
e 41 75
e 41 76
e 42 52
e 42 54
e 42 58
e 42 59
e 42 63
e 42 66
e 42 73
e 42 76
e 42 77
e 42 79
e 43 45
e 43 49
e 43 50
e 43 51
e 43 52
e 43 53
e 43 57
e 43 63
e 43 64
e 43 66
e 43 68
e 43 70
e 43 71
e 44 52
e 44 55
e 44 56
e 44 60
e 44 62
e 44 65
e 44 68
e 44 76
e 44 77
e 44 78
e 44 80
e 45 49
e 45 53
e 45 55
e 45 57
e 45 59
e 45 60
e 45 62
e 45 64
e 45 66
e 45 73
e 45 77
e 45 79
e 45 80
e 46 49
e 46 55
e 46 63
e 46 64
e 46 67
e 46 69
e 46 71
e 46 72
e 46 73
e 46 74
e 46 79
e 47 48
e 47 53
e 47 57
e 47 61
e 47 62
e 47 64
e 47 65
e 47 67
e 48 55
e 48 58
e 48 60
e 48 61
e 48 65
e 48 67
e 48 69
e 48 73
e 48 78
e 49 53
e 49 55
e 49 58
e 49 62
e 49 63
e 49 64
e 49 67
e 50 53
e 50 54
e 50 55
e 50 56
e 50 60
e 50 61
e 50 62
e 50 64
e 50 66
e 50 78
e 50 80
e 51 54
e 51 55
e 51 65
e 51 67
e 51 70
e 51 72
e 52 53
e 52 55
e 52 57
e 52 60
e 52 61
e 52 68
e 52 69
e 52 70
e 52 72
e 52 73
e 52 75
e 52 78
e 52 79
e 53 59
e 53 61
e 53 65
e 53 69
e 53 72
e 53 73
e 53 75
e 53 76
e 53 78
e 54 59
e 54 63
e 54 69
e 54 71
e 54 72
e 54 79
e 54 80
e 55 58
e 55 59
e 55 61
e 55 62
e 55 65
e 55 66
e 55 67
e 55 68
e 55 69
e 55 70
e 55 71
e 56 57
e 56 59
e 56 61
e 56 63
e 56 70
e 56 73
e 56 77
e 57 64
e 57 65
e 57 67
e 57 68
e 57 73
e 57 77
e 58 78
e 59 63
e 59 64
e 59 68
e 59 71
e 59 78
e 59 79
e 60 63
e 60 70
e 60 73
e 61 62
e 61 65
e 61 66
e 61 69
e 61 72
e 61 75
e 61 76
e 61 80
e 62 64
e 62 65
e 62 68
e 62 70
e 62 71
e 62 72
e 62 74
e 62 78
e 62 79
e 62 80
e 63 65
e 63 71
e 63 73
e 63 75
e 63 76
e 63 77
e 63 78
e 64 65
e 64 68
e 64 70
e 64 71
e 64 72
e 64 73
e 64 74
e 64 77
e 65 67
e 65 68
e 65 69
e 65 76
e 66 69
e 66 72
e 66 75
e 66 78
e 67 70
e 67 72
e 67 74
e 67 79
e 67 80
e 68 69
e 68 70
e 68 72
e 68 79
e 69 70
e 69 73
e 69 74
e 69 75
e 69 77
e 70 71
e 71 72
e 71 74
e 72 74
e 72 75
e 72 79
e 72 80
e 73 76
e 73 77
e 73 78
e 74 78
e 74 80
e 75 79
e 76 80
e 77 78
e 78 79